% Auto-generated by scripts/generate_dzn.py
% problem_type   = regex
% instance       = regex_87
% source_json    = instances_json/1_medium_blowup/regex_87.json
% blowup         = 5.454545454545454
% representation = DFA

mode = 0;

var_count = 20;
Q = 60;
S = 3;
q0 = 1;
F = {42, 43, 44, 45, 46, 47, 48, 49, 50, 51, 52, 53, 54, 55, 56, 57, 58, 59, 60};
d_dfa = array2d(1..60, 1..3, [
  1, 2, 1,
  3, 2, 1,
  4, 2, 1,
  5, 6, 5,
  7, 8, 7,
  9, 8, 7,
  10, 11, 10,
  12, 11, 10,
  13, 11, 10,
  14, 15, 14,
  16, 15, 14,
  17, 15, 14,
  18, 19, 18,
  20, 21, 20,
  22, 21, 20,
  23, 21, 20,
  24, 25, 24,
  26, 27, 26,
  28, 27, 26,
  29, 30, 29,
  31, 30, 29,
  32, 30, 29,
  33, 34, 33,
  35, 36, 35,
  37, 36, 35,
  38, 39, 38,
  40, 39, 38,
  41, 39, 38,
  42, 43, 42,
  44, 43, 42,
  45, 43, 42,
  46, 47, 46,
  48, 49, 48,
  50, 49, 48,
  51, 52, 51,
  53, 52, 51,
  54, 52, 51,
  55, 56, 55,
  57, 56, 55,
  58, 56, 55,
  59, 60, 59,
  1, 2, 1,
  3, 2, 1,
  4, 2, 1,
  5, 6, 5,
  7, 8, 7,
  9, 8, 7,
  10, 11, 10,
  12, 11, 10,
  13, 11, 10,
  14, 15, 14,
  16, 15, 14,
  17, 15, 14,
  18, 19, 18,
  20, 21, 20,
  22, 21, 20,
  23, 21, 20,
  24, 25, 24,
  26, 27, 26,
  28, 27, 26
]);
d_nfa = array2d(1..60, 1..3, [
  {}, {}, {},
  {}, {}, {},
  {}, {}, {},
  {}, {}, {},
  {}, {}, {},
  {}, {}, {},
  {}, {}, {},
  {}, {}, {},
  {}, {}, {},
  {}, {}, {},
  {}, {}, {},
  {}, {}, {},
  {}, {}, {},
  {}, {}, {},
  {}, {}, {},
  {}, {}, {},
  {}, {}, {},
  {}, {}, {},
  {}, {}, {},
  {}, {}, {},
  {}, {}, {},
  {}, {}, {},
  {}, {}, {},
  {}, {}, {},
  {}, {}, {},
  {}, {}, {},
  {}, {}, {},
  {}, {}, {},
  {}, {}, {},
  {}, {}, {},
  {}, {}, {},
  {}, {}, {},
  {}, {}, {},
  {}, {}, {},
  {}, {}, {},
  {}, {}, {},
  {}, {}, {},
  {}, {}, {},
  {}, {}, {},
  {}, {}, {},
  {}, {}, {},
  {}, {}, {},
  {}, {}, {},
  {}, {}, {},
  {}, {}, {},
  {}, {}, {},
  {}, {}, {},
  {}, {}, {},
  {}, {}, {},
  {}, {}, {},
  {}, {}, {},
  {}, {}, {},
  {}, {}, {},
  {}, {}, {},
  {}, {}, {},
  {}, {}, {},
  {}, {}, {},
  {}, {}, {},
  {}, {}, {},
  {}, {}, {}
]);
